NAME: ACTUAL_TOURS/amz1239
TYPE: TOUR
COMMENT: RouteID_83665b55-bbfe-4129-95a6-60ab99cb2428
DIMENSION: 181
TOUR_SECTION
33
110
136
108
34
94
66
171
11
30
51
68
117
3
97
173
153
65
107
124
1
15
72
10
100
129
64
137
23
116
170
176
48
138
35
122
155
50
126
105
69
158
151
63
120
13
27
115
16
25
36
163
70
21
161
135
162
12
157
167
86
6
44
56
133
67
144
101
154
130
61
28
74
150
80
41
76
22
89
38
140
180
39
14
62
146
88
114
20
53
134
109
77
106
113
178
149
169
104
93
98
46
147
57
156
145
127
71
142
82
119
2
55
168
92
8
84
24
123
181
179
4
26
32
172
91
85
102
42
31
160
45
73
164
95
96
152
103
59
166
54
131
141
148
128
78
75
49
165
112
90
143
43
81
19
174
79
139
177
60
29
17
118
111
40
58
9
125
5
159
47
132
121
99
18
52
83
87
37
175
7
-1
EOF
